proyfinal/src/viki/013/experimentInOfficeAgust.take6.output/d90ea2b1-f8aa-4ee9-aed3-b31e2520e3cb.als.out
Reading from standard input... Use '--help' for help.
============================[ Problem Statistics ]=============================
|                                                                             |
|  Number of variables:         87638                                         |
|  Number of clauses:          161767                                         |
|  Parse time:                   0.04 s                                       |
|                                                                             |
============================[ Search Statistics ]==============================
| Conflicts |          ORIGINAL         |          LEARNT          | Progress |
|           |    Vars  Clauses Literals |    Limit  Clauses Lit/Cl |          |
===============================================================================
|       100 |   62868   107171   267188 |    39296      100     11 | 28.264 % |
|       250 |   62868   107171   267188 |    43225      250     31 | 28.264 % |
|       475 |   62850   107097   267017 |    47548      473     46 | 28.285 % |
|       812 |   62850   107097   267017 |    52303      810     46 | 28.285 % |
|      1318 |   62849   107053   266927 |    57533     1314     58 | 28.286 % |
|      2077 |   62849   107053   266927 |    63286     2073     66 | 28.286 % |
|      3216 |   62849   107053   266927 |    69615     3212     68 | 28.286 % |
|      4924 |   62832   106985   266766 |    76576     4919     71 | 28.305 % |
|      7486 |   62796   106853   266414 |    84234     7454     75 | 28.346 % |
|     11330 |   62796   106853   266414 |    92657    11298     79 | 28.346 % |
|     17096 |   56332    86282   215813 |   101923    16741     75 | 35.722 % |
===============================================================================
restarts              : 63
conflicts             : 18880          (8135 /sec)
decisions             : 54951          (0.00 % random) (23676 /sec)
propagations          : 22668764       (9766998 /sec)
conflict literals     : 1379607        (50.34 % deleted)
Memory used           : 30.75 MB
CPU time              : 2.32096 s

UNSATISFIABLE
